# Objective value = 1.2454433635037117e+03
x[S1,C1,P1,1] 0
x[S1,C1,P1,2] 0
x[S1,C1,P1,3] 0
x[S1,C1,P1,4] 0
x[S1,C1,P1,5] 0
x[S1,C1,P1,6] 0
x[S1,C1,P1,7] 0
x[S1,C1,P1,8] 0
x[S1,C1,P1,9] 0
x[S1,C1,P1,10] 0
x[S1,C1,P1,11] 0
x[S1,C1,P1,12] 0
x[S1,C1,P1,13] 0
x[S1,C1,P1,14] 0
x[S1,C1,P1,15] 0
x[S1,C1,P1,16] 0
x[S1,C1,P1,17] 0
x[S1,C1,P1,18] 0
x[S1,C1,P1,19] 0
x[S1,C2,P1,1] 0
x[S1,C2,P1,2] 4.82851063829787
x[S1,C2,P1,3] 6.1276595744680860e+00
x[S1,C2,P1,4] 0
x[S1,C2,P1,5] 0
x[S1,C2,P1,6] 0
x[S1,C2,P1,7] 0
x[S1,C2,P1,8] 0
x[S1,C2,P1,9] 0
x[S1,C2,P1,10] 6.1276595744680691e+00
x[S1,C2,P1,11] 0
x[S1,C2,P1,12] 0
x[S1,C2,P1,13] 0
x[S1,C2,P1,14] 0
x[S1,C2,P1,15] 0
x[S1,C2,P1,16] 0
x[S1,C2,P1,17] 0
x[S1,C2,P1,18] 0
x[S1,C2,P1,19] 0
x[S1,C3,P1,1] 0
x[S1,C3,P1,2] 9.19148936170213
x[S1,C3,P1,3] 9.19148936170213
x[S1,C3,P1,4] 0
x[S1,C3,P1,5] 0
x[S1,C3,P1,6] 0
x[S1,C3,P1,7] 0
x[S1,C3,P1,8] 0
x[S1,C3,P1,9] 0
x[S1,C3,P1,10] 1.2255319148936177e+01
x[S1,C3,P1,11] 0
x[S1,C3,P1,12] 0
x[S1,C3,P1,13] 0
x[S1,C3,P1,14] 0
x[S1,C3,P1,15] 0
x[S1,C3,P1,16] 0
x[S1,C3,P1,17] 0
x[S1,C3,P1,18] 0
x[S1,C3,P1,19] 0
x[S2,C1,P1,1] 0
x[S2,C1,P1,2] 1.4553191489361503e+00
x[S2,C1,P1,3] 1.3734680851063850e+01
x[S2,C1,P1,4] 1.1328510638297869e+01
x[S2,C1,P1,5] 0
x[S2,C1,P1,6] 1.0126489361702127e+01
x[S2,C1,P1,7] 6.9450000000000074e+00
x[S2,C1,P1,8] 6.1276595744680886e+00
x[S2,C1,P1,9] 1.3097340425531904e+01
x[S2,C1,P1,10] 8.7750000000000057e+00
x[S2,C1,P1,11] 1.1112978723404254e+01
x[S2,C1,P1,12] 1.1270212765957619e+00
x[S2,C1,P1,13] 0
x[S2,C1,P1,14] 0
x[S2,C1,P1,15] 8.7499999999995737e-01
x[S2,C1,P1,16] 1.0255000000000067e+01
x[S2,C1,P1,17] 0
x[S2,C1,P1,18] 0
x[S2,C1,P1,19] 0
x[S2,C2,P1,1] 10.7
x[S2,C2,P1,2] 6.9364893617021517e+00
x[S2,C2,P1,3] 0
x[S2,C2,P1,4] 3.7473404255318954e+00
x[S2,C2,P1,5] 9.1050000000000040e+00
x[S2,C2,P1,6] 7.1351063829787620e-01
x[S2,C2,P1,7] 0
x[S2,C2,P1,8] 9.1914893617021285e+00
x[S2,C2,P1,9] 0
x[S2,C2,P1,10] 6.1000000000000014e+00
x[S2,C2,P1,11] 4.25234042553193
x[S2,C2,P1,12] 0
x[S2,C2,P1,13] 8.5400000000000063e+00
x[S2,C2,P1,14] 0
x[S2,C2,P1,15] 0
x[S2,C2,P1,16] 0
x[S2,C2,P1,17] 0
x[S2,C2,P1,18] 0
x[S2,C2,P1,19] 0
x[S2,C3,P1,1] 0
x[S2,C3,P1,2] 2.3081914893616977e+00
x[S2,C3,P1,3] 0
x[S2,C3,P1,4] 0
x[S2,C3,P1,5] 3.0638297872340430e+00
x[S2,C3,P1,6] 5.2099999999999973e+00
x[S2,C3,P1,7] 4.2900000000000205e+00
x[S2,C3,P1,8] 0
x[S2,C3,P1,9] 2.9526595744680915e+00
x[S2,C3,P1,10] 1.0673404255318957e+00
x[S2,C3,P1,11] 6.8468085106382048e-01
x[S2,C3,P1,12] 1.1956170212765940e+01
x[S2,C3,P1,13] 3.0638297872340430e+00
x[S2,C3,P1,14] 0
x[S2,C3,P1,15] 1.1810000000000068e+01
x[S2,C3,P1,16] 5.7949999999999307e+00
x[S2,C3,P1,17] 1.4210854715202004e-14
x[S2,C3,P1,18] 0
x[S2,C3,P1,19] 0
r[S1,P1,1] 0
r[S1,P1,2] 1
r[S1,P1,3] 1
r[S1,P1,4] 0
r[S1,P1,5] 0
r[S1,P1,6] 0
r[S1,P1,7] 0
r[S1,P1,8] 0
r[S1,P1,9] 0
r[S1,P1,10] 1
r[S1,P1,11] 0
r[S1,P1,12] 0
r[S1,P1,13] 0
r[S1,P1,14] 0
r[S1,P1,15] 0
r[S1,P1,16] 0
r[S1,P1,17] 0
r[S1,P1,18] 0
r[S1,P1,19] 0
r[S2,P1,1] 1
r[S2,P1,2] 1
r[S2,P1,3] 1
r[S2,P1,4] 1
r[S2,P1,5] 1
r[S2,P1,6] 1
r[S2,P1,7] 1
r[S2,P1,8] 1
r[S2,P1,9] 1
r[S2,P1,10] 1
r[S2,P1,11] 1
r[S2,P1,12] 1
r[S2,P1,13] 1
r[S2,P1,14] 0
r[S2,P1,15] 1
r[S2,P1,16] 1
r[S2,P1,17] 0
r[S2,P1,18] 0
r[S2,P1,19] 0
l[S1,C1] 0
l[S1,C2] 1
l[S1,C3] 1
l[S2,C1] 1
l[S2,C2] 1
l[S2,C3] 1
k[S1,C1,1] 0
k[S1,C1,2] 0
k[S1,C1,3] 0
k[S1,C1,4] 0
k[S1,C1,5] 0
k[S1,C1,6] 0
k[S1,C1,7] 0
k[S1,C1,8] 0
k[S1,C1,9] 0
k[S1,C1,10] 0
k[S1,C1,11] 0
k[S1,C1,12] 0
k[S1,C1,13] 0
k[S1,C1,14] 0
k[S1,C1,15] 0
k[S1,C1,16] 0
k[S1,C1,17] 0
k[S1,C1,18] 0
k[S1,C1,19] 0
k[S1,C2,1] 0
k[S1,C2,2] 2
k[S1,C2,3] 2
k[S1,C2,4] 0
k[S1,C2,5] 0
k[S1,C2,6] 0
k[S1,C2,7] 0
k[S1,C2,8] 0
k[S1,C2,9] 0
k[S1,C2,10] 2
k[S1,C2,11] 0
k[S1,C2,12] 0
k[S1,C2,13] 0
k[S1,C2,14] 0
k[S1,C2,15] 0
k[S1,C2,16] 0
k[S1,C2,17] 0
k[S1,C2,18] 0
k[S1,C2,19] 0
k[S1,C3,1] 0
k[S1,C3,2] 3
k[S1,C3,3] 3
k[S1,C3,4] 0
k[S1,C3,5] 0
k[S1,C3,6] 0
k[S1,C3,7] 0
k[S1,C3,8] 0
k[S1,C3,9] 0
k[S1,C3,10] 4
k[S1,C3,11] 0
k[S1,C3,12] 0
k[S1,C3,13] 0
k[S1,C3,14] 0
k[S1,C3,15] 0
k[S1,C3,16] 0
k[S1,C3,17] 0
k[S1,C3,18] 0
k[S1,C3,19] 0
k[S2,C1,1] 0
k[S2,C1,2] 1
k[S2,C1,3] 5
k[S2,C1,4] 4
k[S2,C1,5] 0
k[S2,C1,6] 4
k[S2,C1,7] 3
k[S2,C1,8] 2
k[S2,C1,9] 5
k[S2,C1,10] 3
k[S2,C1,11] 4
k[S2,C1,12] 1
k[S2,C1,13] 0
k[S2,C1,14] 0
k[S2,C1,15] 1
k[S2,C1,16] 4
k[S2,C1,17] 0
k[S2,C1,18] 0
k[S2,C1,19] 0
k[S2,C2,1] 4
k[S2,C2,2] 3
k[S2,C2,3] 0
k[S2,C2,4] 2
k[S2,C2,5] 3
k[S2,C2,6] 1
k[S2,C2,7] 0
k[S2,C2,8] 3
k[S2,C2,9] 0
k[S2,C2,10] 2
k[S2,C2,11] 2
k[S2,C2,12] 0
k[S2,C2,13] 3
k[S2,C2,14] 0
k[S2,C2,15] 0
k[S2,C2,16] 0
k[S2,C2,17] 0
k[S2,C2,18] 0
k[S2,C2,19] 0
k[S2,C3,1] 0
k[S2,C3,2] 1
k[S2,C3,3] 0
k[S2,C3,4] 0
k[S2,C3,5] 1
k[S2,C3,6] 2
k[S2,C3,7] 2
k[S2,C3,8] 0
k[S2,C3,9] 1
k[S2,C3,10] 1
k[S2,C3,11] 1
k[S2,C3,12] 4
k[S2,C3,13] 1
k[S2,C3,14] 0
k[S2,C3,15] 4
k[S2,C3,16] 2
k[S2,C3,17] 0
k[S2,C3,18] 0
k[S2,C3,19] 0
v[S1,C1] 0
v[S1,C2] 2
v[S1,C3] 4
v[S2,C1] 5
v[S2,C2] 4
v[S2,C3] 4
z[C1,P1,1] 0
z[C1,P1,2] 0
z[C1,P1,3] 0
z[C1,P1,4] 2.1159574468084514e+00
z[C1,P1,5] 0
z[C1,P1,6] 1.1175531914893354e-01
z[C1,P1,7] 1.1175531914893355e-01
z[C1,P1,8] 1.2499999999999997e-01
z[C1,P1,9] 0
z[C1,P1,10] 2.5765957446809296e-01
z[C1,P1,11] 0.375
z[C1,P1,12] 0.0625
z[C1,P1,13] 1.0601063829787449e-01
z[C1,P1,14] 0
z[C1,P1,15] 0
z[C1,P1,16] 0
z[C1,P1,17] 7.4999999999991473e-01
z[C1,P1,18] 0
z[C1,P1,19] 0
z[C2,P1,1] 0
z[C2,P1,2] 0
z[C2,P1,3] 0
z[C2,P1,4] 0.0824999999999978
z[C2,P1,5] 1.2329787234043008e+00
z[C2,P1,6] 1.2500000000001066e-01
z[C2,P1,7] 0
z[C2,P1,8] 0.125
z[C2,P1,9] 2.2872340425530879e-02
z[C2,P1,10] 2.2872340425530879e-02
z[C2,P1,11] 0
z[C2,P1,12] 0
z[C2,P1,13] 0.0625
z[C2,P1,14] 0
z[C2,P1,15] 0
z[C2,P1,16] 0
z[C2,P1,17] 0
z[C2,P1,18] 0
z[C2,P1,19] 0
z[C3,P1,1] 0
z[C3,P1,2] 0
z[C3,P1,3] 0
z[C3,P1,4] 2.6361702127659417e+00
z[C3,P1,5] 2.1968085106382773e-01
z[C3,P1,6] 6.0292553191489517e-02
z[C3,P1,7] 0.125
z[C3,P1,8] 3.7500000000000355e-01
z[C3,P1,9] 1.2500000000001085e-01
z[C3,P1,10] 1.2500000000001260e-01
z[C3,P1,11] 4.7601063829784351e-01
z[C3,P1,12] 0.125
z[C3,P1,13] 0.125
z[C3,P1,14] 3.3117021276594016e-01
z[C3,P1,15] 6.9999999999993179e-02
z[C3,P1,16] 3.7500000000001421e-01
z[C3,P1,17] 1.4750000000001648e+00
z[C3,P1,18] 0
z[C3,P1,19] 0
I[D1,P1,0] 0
I[D1,P1,1] 0
I[D1,P1,2] 0
I[D1,P1,3] 0
I[D1,P1,4] 0
I[D1,P1,5] 0
I[D1,P1,6] 0
I[D1,P1,7] 0
I[D1,P1,8] 0
I[D1,P1,9] 0
I[D1,P1,10] 0
I[D1,P1,11] 0
I[D1,P1,12] 0
I[D1,P1,13] 0
I[D1,P1,14] 0
I[D1,P1,15] 0
I[D1,P1,16] 0
I[D1,P1,17] 0
I[D1,P1,18] 0
I[D1,P1,19] 0
I[D2,P1,0] 0
I[D2,P1,1] 0
I[D2,P1,2] 0
I[D2,P1,3] 0
I[D2,P1,4] 0
I[D2,P1,5] 0
I[D2,P1,6] 0
I[D2,P1,7] 0
I[D2,P1,8] 0
I[D2,P1,9] 0
I[D2,P1,10] 0
I[D2,P1,11] 0
I[D2,P1,12] 0
I[D2,P1,13] 0
I[D2,P1,14] 0
I[D2,P1,15] 0
I[D2,P1,16] 0
I[D2,P1,17] 0
I[D2,P1,18] 0
I[D2,P1,19] 0
I[C1,P1,0] 0
I[C1,P1,1] 0
I[C1,P1,2] 0
I[C1,P1,3] 0
I[C1,P1,4] 1.4553191489361503e+00
I[C1,P1,5] 15.19
I[C1,P1,6] 2.6518510638297869e+01
I[C1,P1,7] 2.6518510638297869e+01
I[C1,P1,8] 3.6644999999999996e+01
I[C1,P1,9] 43.59
I[C1,P1,10] 4.9717659574468094e+01
I[C1,P1,11] 62.815
I[C1,P1,12] 71.59
I[C1,P1,13] 8.2702978723404257e+01
I[C1,P1,14] 8.3830000000000013e+01
I[C1,P1,15] 8.3830000000000013e+01
I[C1,P1,16] 8.3830000000000013e+01
I[C1,P1,17] 8.4704999999999970e+01
I[C1,P1,18] 9.4960000000000036e+01
I[C1,P1,19] 9.4960000000000008e+01
I[C2,P1,0] 0
I[C2,P1,1] 0
I[C2,P1,2] 0
I[C2,P1,3] 0
I[C2,P1,4] 10.7
I[C2,P1,5] 1.7636489361702150e+01
I[C2,P1,6] 2.2465000000000021e+01
I[C2,P1,7] 32.34
I[C2,P1,8] 4.1445000000000007e+01
I[C2,P1,9] 4.2158510638297884e+01
I[C2,P1,10] 4.2158510638297884e+01
I[C2,P1,11] 5.1350000000000009e+01
I[C2,P1,12] 5.1350000000000009e+01
I[C2,P1,13] 5.7450000000000010e+01
I[C2,P1,14] 67.83
I[C2,P1,15] 67.83
I[C2,P1,16] 76.37
I[C2,P1,17] 76.37
I[C2,P1,18] 76.37
I[C2,P1,19] 76.37
I[C3,P1,0] 0
I[C3,P1,1] 0
I[C3,P1,2] 0
I[C3,P1,3] 0
I[C3,P1,4] 2.3081914893616977e+00
I[C3,P1,5] 1.1499680851063827e+01
I[C3,P1,6] 2.0691170212765957e+01
I[C3,P1,7] 23.755
I[C3,P1,8] 2.8964999999999996e+01
I[C3,P1,9] 3.3255000000000017e+01
I[C3,P1,10] 3.3255000000000017e+01
I[C3,P1,11] 3.6207659574468110e+01
I[C3,P1,12] 3.7275000000000006e+01
I[C3,P1,13] 50.215
I[C3,P1,14] 6.2171170212765944e+01
I[C3,P1,15] 6.5234999999999985e+01
I[C3,P1,16] 6.5234999999999985e+01
I[C3,P1,17] 7.7045000000000059e+01
I[C3,P1,18] 8.2839999999999989e+01
I[C3,P1,19] 82.84
